VER
4

OBJSENSE
MIN

QCECONES
1 2
2
5 5
1


VAR
17 1
F 17

CON
359 4
@0:SVECQCE 326
SVECQE 17
SVECPSD 15
L= 1

OBJACOORD
2
0 1.0
1 1.0

ACOORD
42
0 0 1.0
1 2 1.0
16 3 1.0
21 4 1.0
56 5 1.0
61 6 1.0
66 7 1.0
121 8 1.0
126 9 1.0
131 10 1.0
136 11 1.0
211 12 1.0
216 13 1.0
221 14 1.0
226 15 1.0
231 16 1.0
326 1 1.0
328 2 1.0
328 4 1.0
328 7 1.0
328 11 1.0
328 16 1.0
343 2 1.0
344 3 1.0
345 4 1.0
346 5 1.0
347 6 1.0
348 7 1.0
349 8 1.0
350 9 1.0
351 10 1.0
352 11 1.0
353 12 1.0
354 13 1.0
355 14 1.0
356 15 1.0
357 16 1.0
358 2 1.0
358 4 1.0
358 7 1.0
358 11 1.0
358 16 1.0

BCOORD
2
327 -1.0
358 1.0
